p td 22 165
2 1
3 2
3 1
4 1
4 3
4 2
5 4
5 3
5 1
6 5
6 2
6 3
6 1
7 3
7 5
7 2
7 1
8 7
8 4
8 2
8 1
8 5
8 6
9 2
9 8
9 6
10 2
10 4
10 8
10 7
11 6
11 4
11 1
11 8
11 5
11 9
12 2
12 8
12 3
12 7
12 1
12 6
12 11
12 4
12 9
12 10
13 1
13 3
13 8
13 5
13 7
13 10
13 9
13 2
13 12
13 11
14 7
14 11
14 5
14 13
14 2
14 8
14 10
14 12
14 1
15 10
15 1
15 14
15 7
15 6
15 5
15 12
15 2
16 14
16 5
16 7
16 12
16 9
16 4
16 3
16 6
16 8
16 15
16 2
16 13
17 3
17 2
17 14
17 16
17 7
17 4
17 6
17 11
17 9
17 10
17 8
17 1
17 5
18 10
18 9
18 2
18 11
18 3
18 4
18 15
18 6
18 12
18 7
18 8
18 1
18 14
18 5
19 14
19 6
19 9
19 11
19 16
19 3
19 18
19 5
19 15
19 2
19 12
19 10
20 15
20 1
20 10
20 3
20 16
20 18
20 5
20 17
20 9
20 19
20 6
20 8
20 11
21 8
21 14
21 13
21 20
21 7
21 3
21 16
21 9
21 2
21 17
21 10
21 6
21 19
22 11
22 3
22 18
22 5
22 16
22 4
22 17
22 19
22 6
22 8
22 7
22 20
22 13
22 2
22 14
